<instance format="XCSP3" type="CSP">
<variables>
<array id="u0" size="[4]"> 0..5 </array>
<array id="id0" size="[4]"> 0..15 </array>
<array id="u1" size="[4]"> 0..5 </array>
<array id="id1" size="[4]"> 0..15 </array>
<array id="u2" size="[4]"> 0..5 </array>
<array id="id2" size="[4]"> 0..15 </array>
<array id="u3" size="[4]"> 0..5 </array>
<array id="id3" size="[4]"> 0..15 </array>
<array id="d3" size="[4]"> 0..5 </array>
<array id="l0" size="[4]"> 0..5 </array>
<array id="l1" size="[4]"> 0..5 </array>
<array id="l2" size="[4]"> 0..5 </array>
<array id="l3" size="[4]"> 0..5 </array>
<array id="r3" size="[4]"> 0..5 </array>
</variables>
<constraints>
<allDifferent> id0[] id1[] id2[] id3[] </allDifferent>
<extension>
<list> id0[0] u0[0] l1[0] u1[0] l0[0] </list>
<supports> (0,0,0,1,1)(0,0,1,1,0)(0,1,0,0,1)(0,1,1,0,0)(1,0,0,1,2)(1,0,1,2,0)(1,1,2,0,0)(1,2,0,0,1)(2,0,0,2,1)(2,0,2,1,0)(2,1,0,0,2)(2,2,1,0,0)(3,0,0,2,2)(3,0,2,2,0)(3,2,0,0,2)(3,2,2,0,0)(4,0,1,3,1)(4,1,0,1,3)(4,1,3,1,0)(4,3,1,0,1)(5,0,1,3,2)(5,1,3,2,0)(5,2,0,1,3)(5,3,2,0,1)(6,0,1,4,1)(6,1,0,1,4)(6,1,4,1,0)(6,4,1,0,1)(7,0,1,5,2)(7,1,5,2,0)(7,2,0,1,5)(7,5,2,0,1)(8,0,2,4,1)(8,1,0,2,4)(8,2,4,1,0)(8,4,1,0,2)(9,0,2,4,2)(9,2,0,2,4)(9,2,4,2,0)(9,4,2,0,2)(10,0,2,5,1)(10,1,0,2,5)(10,2,5,1,0)(10,5,1,0,2)(11,0,2,5,2)(11,2,0,2,5)(11,2,5,2,0)(11,5,2,0,2)(12,3,3,5,5)(12,3,5,5,3)(12,5,3,3,5)(12,5,5,3,3)(13,3,4,3,5)(13,3,5,3,4)(13,4,3,5,3)(13,5,3,4,3)(14,3,4,4,4)(14,4,3,4,4)(14,4,4,3,4)(14,4,4,4,3)(15,3,5,5,4)(15,4,3,5,5)(15,5,4,3,5)(15,5,5,4,3) </supports>
</extension>
<extension>
<list> id0[1] u0[1] l2[0] u1[1] l1[0] </list>
<supports> (0,0,0,1,1)(0,0,1,1,0)(0,1,0,0,1)(0,1,1,0,0)(1,0,0,1,2)(1,0,1,2,0)(1,1,2,0,0)(1,2,0,0,1)(2,0,0,2,1)(2,0,2,1,0)(2,1,0,0,2)(2,2,1,0,0)(3,0,0,2,2)(3,0,2,2,0)(3,2,0,0,2)(3,2,2,0,0)(4,0,1,3,1)(4,1,0,1,3)(4,1,3,1,0)(4,3,1,0,1)(5,0,1,3,2)(5,1,3,2,0)(5,2,0,1,3)(5,3,2,0,1)(6,0,1,4,1)(6,1,0,1,4)(6,1,4,1,0)(6,4,1,0,1)(7,0,1,5,2)(7,1,5,2,0)(7,2,0,1,5)(7,5,2,0,1)(8,0,2,4,1)(8,1,0,2,4)(8,2,4,1,0)(8,4,1,0,2)(9,0,2,4,2)(9,2,0,2,4)(9,2,4,2,0)(9,4,2,0,2)(10,0,2,5,1)(10,1,0,2,5)(10,2,5,1,0)(10,5,1,0,2)(11,0,2,5,2)(11,2,0,2,5)(11,2,5,2,0)(11,5,2,0,2)(12,3,3,5,5)(12,3,5,5,3)(12,5,3,3,5)(12,5,5,3,3)(13,3,4,3,5)(13,3,5,3,4)(13,4,3,5,3)(13,5,3,4,3)(14,3,4,4,4)(14,4,3,4,4)(14,4,4,3,4)(14,4,4,4,3)(15,3,5,5,4)(15,4,3,5,5)(15,5,4,3,5)(15,5,5,4,3) </supports>
</extension>
<extension>
<list> id0[2] u0[2] l3[0] u1[2] l2[0] </list>
<supports> (0,0,0,1,1)(0,0,1,1,0)(0,1,0,0,1)(0,1,1,0,0)(1,0,0,1,2)(1,0,1,2,0)(1,1,2,0,0)(1,2,0,0,1)(2,0,0,2,1)(2,0,2,1,0)(2,1,0,0,2)(2,2,1,0,0)(3,0,0,2,2)(3,0,2,2,0)(3,2,0,0,2)(3,2,2,0,0)(4,0,1,3,1)(4,1,0,1,3)(4,1,3,1,0)(4,3,1,0,1)(5,0,1,3,2)(5,1,3,2,0)(5,2,0,1,3)(5,3,2,0,1)(6,0,1,4,1)(6,1,0,1,4)(6,1,4,1,0)(6,4,1,0,1)(7,0,1,5,2)(7,1,5,2,0)(7,2,0,1,5)(7,5,2,0,1)(8,0,2,4,1)(8,1,0,2,4)(8,2,4,1,0)(8,4,1,0,2)(9,0,2,4,2)(9,2,0,2,4)(9,2,4,2,0)(9,4,2,0,2)(10,0,2,5,1)(10,1,0,2,5)(10,2,5,1,0)(10,5,1,0,2)(11,0,2,5,2)(11,2,0,2,5)(11,2,5,2,0)(11,5,2,0,2)(12,3,3,5,5)(12,3,5,5,3)(12,5,3,3,5)(12,5,5,3,3)(13,3,4,3,5)(13,3,5,3,4)(13,4,3,5,3)(13,5,3,4,3)(14,3,4,4,4)(14,4,3,4,4)(14,4,4,3,4)(14,4,4,4,3)(15,3,5,5,4)(15,4,3,5,5)(15,5,4,3,5)(15,5,5,4,3) </supports>
</extension>
<extension>
<list> id0[3] u0[3] r3[0] u1[3] l3[0] </list>
<supports> (0,0,0,1,1)(0,0,1,1,0)(0,1,0,0,1)(0,1,1,0,0)(1,0,0,1,2)(1,0,1,2,0)(1,1,2,0,0)(1,2,0,0,1)(2,0,0,2,1)(2,0,2,1,0)(2,1,0,0,2)(2,2,1,0,0)(3,0,0,2,2)(3,0,2,2,0)(3,2,0,0,2)(3,2,2,0,0)(4,0,1,3,1)(4,1,0,1,3)(4,1,3,1,0)(4,3,1,0,1)(5,0,1,3,2)(5,1,3,2,0)(5,2,0,1,3)(5,3,2,0,1)(6,0,1,4,1)(6,1,0,1,4)(6,1,4,1,0)(6,4,1,0,1)(7,0,1,5,2)(7,1,5,2,0)(7,2,0,1,5)(7,5,2,0,1)(8,0,2,4,1)(8,1,0,2,4)(8,2,4,1,0)(8,4,1,0,2)(9,0,2,4,2)(9,2,0,2,4)(9,2,4,2,0)(9,4,2,0,2)(10,0,2,5,1)(10,1,0,2,5)(10,2,5,1,0)(10,5,1,0,2)(11,0,2,5,2)(11,2,0,2,5)(11,2,5,2,0)(11,5,2,0,2)(12,3,3,5,5)(12,3,5,5,3)(12,5,3,3,5)(12,5,5,3,3)(13,3,4,3,5)(13,3,5,3,4)(13,4,3,5,3)(13,5,3,4,3)(14,3,4,4,4)(14,4,3,4,4)(14,4,4,3,4)(14,4,4,4,3)(15,3,5,5,4)(15,4,3,5,5)(15,5,4,3,5)(15,5,5,4,3) </supports>
</extension>
<extension>
<list> id1[0] u1[0] l1[1] u2[0] l0[1] </list>
<supports> (0,0,0,1,1)(0,0,1,1,0)(0,1,0,0,1)(0,1,1,0,0)(1,0,0,1,2)(1,0,1,2,0)(1,1,2,0,0)(1,2,0,0,1)(2,0,0,2,1)(2,0,2,1,0)(2,1,0,0,2)(2,2,1,0,0)(3,0,0,2,2)(3,0,2,2,0)(3,2,0,0,2)(3,2,2,0,0)(4,0,1,3,1)(4,1,0,1,3)(4,1,3,1,0)(4,3,1,0,1)(5,0,1,3,2)(5,1,3,2,0)(5,2,0,1,3)(5,3,2,0,1)(6,0,1,4,1)(6,1,0,1,4)(6,1,4,1,0)(6,4,1,0,1)(7,0,1,5,2)(7,1,5,2,0)(7,2,0,1,5)(7,5,2,0,1)(8,0,2,4,1)(8,1,0,2,4)(8,2,4,1,0)(8,4,1,0,2)(9,0,2,4,2)(9,2,0,2,4)(9,2,4,2,0)(9,4,2,0,2)(10,0,2,5,1)(10,1,0,2,5)(10,2,5,1,0)(10,5,1,0,2)(11,0,2,5,2)(11,2,0,2,5)(11,2,5,2,0)(11,5,2,0,2)(12,3,3,5,5)(12,3,5,5,3)(12,5,3,3,5)(12,5,5,3,3)(13,3,4,3,5)(13,3,5,3,4)(13,4,3,5,3)(13,5,3,4,3)(14,3,4,4,4)(14,4,3,4,4)(14,4,4,3,4)(14,4,4,4,3)(15,3,5,5,4)(15,4,3,5,5)(15,5,4,3,5)(15,5,5,4,3) </supports>
</extension>
<extension>
<list> id1[1] u1[1] l2[1] u2[1] l1[1] </list>
<supports> (0,0,0,1,1)(0,0,1,1,0)(0,1,0,0,1)(0,1,1,0,0)(1,0,0,1,2)(1,0,1,2,0)(1,1,2,0,0)(1,2,0,0,1)(2,0,0,2,1)(2,0,2,1,0)(2,1,0,0,2)(2,2,1,0,0)(3,0,0,2,2)(3,0,2,2,0)(3,2,0,0,2)(3,2,2,0,0)(4,0,1,3,1)(4,1,0,1,3)(4,1,3,1,0)(4,3,1,0,1)(5,0,1,3,2)(5,1,3,2,0)(5,2,0,1,3)(5,3,2,0,1)(6,0,1,4,1)(6,1,0,1,4)(6,1,4,1,0)(6,4,1,0,1)(7,0,1,5,2)(7,1,5,2,0)(7,2,0,1,5)(7,5,2,0,1)(8,0,2,4,1)(8,1,0,2,4)(8,2,4,1,0)(8,4,1,0,2)(9,0,2,4,2)(9,2,0,2,4)(9,2,4,2,0)(9,4,2,0,2)(10,0,2,5,1)(10,1,0,2,5)(10,2,5,1,0)(10,5,1,0,2)(11,0,2,5,2)(11,2,0,2,5)(11,2,5,2,0)(11,5,2,0,2)(12,3,3,5,5)(12,3,5,5,3)(12,5,3,3,5)(12,5,5,3,3)(13,3,4,3,5)(13,3,5,3,4)(13,4,3,5,3)(13,5,3,4,3)(14,3,4,4,4)(14,4,3,4,4)(14,4,4,3,4)(14,4,4,4,3)(15,3,5,5,4)(15,4,3,5,5)(15,5,4,3,5)(15,5,5,4,3) </supports>
</extension>
<extension>
<list> id1[2] u1[2] l3[1] u2[2] l2[1] </list>
<supports> (0,0,0,1,1)(0,0,1,1,0)(0,1,0,0,1)(0,1,1,0,0)(1,0,0,1,2)(1,0,1,2,0)(1,1,2,0,0)(1,2,0,0,1)(2,0,0,2,1)(2,0,2,1,0)(2,1,0,0,2)(2,2,1,0,0)(3,0,0,2,2)(3,0,2,2,0)(3,2,0,0,2)(3,2,2,0,0)(4,0,1,3,1)(4,1,0,1,3)(4,1,3,1,0)(4,3,1,0,1)(5,0,1,3,2)(5,1,3,2,0)(5,2,0,1,3)(5,3,2,0,1)(6,0,1,4,1)(6,1,0,1,4)(6,1,4,1,0)(6,4,1,0,1)(7,0,1,5,2)(7,1,5,2,0)(7,2,0,1,5)(7,5,2,0,1)(8,0,2,4,1)(8,1,0,2,4)(8,2,4,1,0)(8,4,1,0,2)(9,0,2,4,2)(9,2,0,2,4)(9,2,4,2,0)(9,4,2,0,2)(10,0,2,5,1)(10,1,0,2,5)(10,2,5,1,0)(10,5,1,0,2)(11,0,2,5,2)(11,2,0,2,5)(11,2,5,2,0)(11,5,2,0,2)(12,3,3,5,5)(12,3,5,5,3)(12,5,3,3,5)(12,5,5,3,3)(13,3,4,3,5)(13,3,5,3,4)(13,4,3,5,3)(13,5,3,4,3)(14,3,4,4,4)(14,4,3,4,4)(14,4,4,3,4)(14,4,4,4,3)(15,3,5,5,4)(15,4,3,5,5)(15,5,4,3,5)(15,5,5,4,3) </supports>
</extension>
<extension>
<list> id1[3] u1[3] r3[1] u2[3] l3[1] </list>
<supports> (0,0,0,1,1)(0,0,1,1,0)(0,1,0,0,1)(0,1,1,0,0)(1,0,0,1,2)(1,0,1,2,0)(1,1,2,0,0)(1,2,0,0,1)(2,0,0,2,1)(2,0,2,1,0)(2,1,0,0,2)(2,2,1,0,0)(3,0,0,2,2)(3,0,2,2,0)(3,2,0,0,2)(3,2,2,0,0)(4,0,1,3,1)(4,1,0,1,3)(4,1,3,1,0)(4,3,1,0,1)(5,0,1,3,2)(5,1,3,2,0)(5,2,0,1,3)(5,3,2,0,1)(6,0,1,4,1)(6,1,0,1,4)(6,1,4,1,0)(6,4,1,0,1)(7,0,1,5,2)(7,1,5,2,0)(7,2,0,1,5)(7,5,2,0,1)(8,0,2,4,1)(8,1,0,2,4)(8,2,4,1,0)(8,4,1,0,2)(9,0,2,4,2)(9,2,0,2,4)(9,2,4,2,0)(9,4,2,0,2)(10,0,2,5,1)(10,1,0,2,5)(10,2,5,1,0)(10,5,1,0,2)(11,0,2,5,2)(11,2,0,2,5)(11,2,5,2,0)(11,5,2,0,2)(12,3,3,5,5)(12,3,5,5,3)(12,5,3,3,5)(12,5,5,3,3)(13,3,4,3,5)(13,3,5,3,4)(13,4,3,5,3)(13,5,3,4,3)(14,3,4,4,4)(14,4,3,4,4)(14,4,4,3,4)(14,4,4,4,3)(15,3,5,5,4)(15,4,3,5,5)(15,5,4,3,5)(15,5,5,4,3) </supports>
</extension>
<extension>
<list> id2[0] u2[0] l1[2] u3[0] l0[2] </list>
<supports> (0,0,0,1,1)(0,0,1,1,0)(0,1,0,0,1)(0,1,1,0,0)(1,0,0,1,2)(1,0,1,2,0)(1,1,2,0,0)(1,2,0,0,1)(2,0,0,2,1)(2,0,2,1,0)(2,1,0,0,2)(2,2,1,0,0)(3,0,0,2,2)(3,0,2,2,0)(3,2,0,0,2)(3,2,2,0,0)(4,0,1,3,1)(4,1,0,1,3)(4,1,3,1,0)(4,3,1,0,1)(5,0,1,3,2)(5,1,3,2,0)(5,2,0,1,3)(5,3,2,0,1)(6,0,1,4,1)(6,1,0,1,4)(6,1,4,1,0)(6,4,1,0,1)(7,0,1,5,2)(7,1,5,2,0)(7,2,0,1,5)(7,5,2,0,1)(8,0,2,4,1)(8,1,0,2,4)(8,2,4,1,0)(8,4,1,0,2)(9,0,2,4,2)(9,2,0,2,4)(9,2,4,2,0)(9,4,2,0,2)(10,0,2,5,1)(10,1,0,2,5)(10,2,5,1,0)(10,5,1,0,2)(11,0,2,5,2)(11,2,0,2,5)(11,2,5,2,0)(11,5,2,0,2)(12,3,3,5,5)(12,3,5,5,3)(12,5,3,3,5)(12,5,5,3,3)(13,3,4,3,5)(13,3,5,3,4)(13,4,3,5,3)(13,5,3,4,3)(14,3,4,4,4)(14,4,3,4,4)(14,4,4,3,4)(14,4,4,4,3)(15,3,5,5,4)(15,4,3,5,5)(15,5,4,3,5)(15,5,5,4,3) </supports>
</extension>
<extension>
<list> id2[1] u2[1] l2[2] u3[1] l1[2] </list>
<supports> (0,0,0,1,1)(0,0,1,1,0)(0,1,0,0,1)(0,1,1,0,0)(1,0,0,1,2)(1,0,1,2,0)(1,1,2,0,0)(1,2,0,0,1)(2,0,0,2,1)(2,0,2,1,0)(2,1,0,0,2)(2,2,1,0,0)(3,0,0,2,2)(3,0,2,2,0)(3,2,0,0,2)(3,2,2,0,0)(4,0,1,3,1)(4,1,0,1,3)(4,1,3,1,0)(4,3,1,0,1)(5,0,1,3,2)(5,1,3,2,0)(5,2,0,1,3)(5,3,2,0,1)(6,0,1,4,1)(6,1,0,1,4)(6,1,4,1,0)(6,4,1,0,1)(7,0,1,5,2)(7,1,5,2,0)(7,2,0,1,5)(7,5,2,0,1)(8,0,2,4,1)(8,1,0,2,4)(8,2,4,1,0)(8,4,1,0,2)(9,0,2,4,2)(9,2,0,2,4)(9,2,4,2,0)(9,4,2,0,2)(10,0,2,5,1)(10,1,0,2,5)(10,2,5,1,0)(10,5,1,0,2)(11,0,2,5,2)(11,2,0,2,5)(11,2,5,2,0)(11,5,2,0,2)(12,3,3,5,5)(12,3,5,5,3)(12,5,3,3,5)(12,5,5,3,3)(13,3,4,3,5)(13,3,5,3,4)(13,4,3,5,3)(13,5,3,4,3)(14,3,4,4,4)(14,4,3,4,4)(14,4,4,3,4)(14,4,4,4,3)(15,3,5,5,4)(15,4,3,5,5)(15,5,4,3,5)(15,5,5,4,3) </supports>
</extension>
<extension>
<list> id2[2] u2[2] l3[2] u3[2] l2[2] </list>
<supports> (0,0,0,1,1)(0,0,1,1,0)(0,1,0,0,1)(0,1,1,0,0)(1,0,0,1,2)(1,0,1,2,0)(1,1,2,0,0)(1,2,0,0,1)(2,0,0,2,1)(2,0,2,1,0)(2,1,0,0,2)(2,2,1,0,0)(3,0,0,2,2)(3,0,2,2,0)(3,2,0,0,2)(3,2,2,0,0)(4,0,1,3,1)(4,1,0,1,3)(4,1,3,1,0)(4,3,1,0,1)(5,0,1,3,2)(5,1,3,2,0)(5,2,0,1,3)(5,3,2,0,1)(6,0,1,4,1)(6,1,0,1,4)(6,1,4,1,0)(6,4,1,0,1)(7,0,1,5,2)(7,1,5,2,0)(7,2,0,1,5)(7,5,2,0,1)(8,0,2,4,1)(8,1,0,2,4)(8,2,4,1,0)(8,4,1,0,2)(9,0,2,4,2)(9,2,0,2,4)(9,2,4,2,0)(9,4,2,0,2)(10,0,2,5,1)(10,1,0,2,5)(10,2,5,1,0)(10,5,1,0,2)(11,0,2,5,2)(11,2,0,2,5)(11,2,5,2,0)(11,5,2,0,2)(12,3,3,5,5)(12,3,5,5,3)(12,5,3,3,5)(12,5,5,3,3)(13,3,4,3,5)(13,3,5,3,4)(13,4,3,5,3)(13,5,3,4,3)(14,3,4,4,4)(14,4,3,4,4)(14,4,4,3,4)(14,4,4,4,3)(15,3,5,5,4)(15,4,3,5,5)(15,5,4,3,5)(15,5,5,4,3) </supports>
</extension>
<extension>
<list> id2[3] u2[3] r3[2] u3[3] l3[2] </list>
<supports> (0,0,0,1,1)(0,0,1,1,0)(0,1,0,0,1)(0,1,1,0,0)(1,0,0,1,2)(1,0,1,2,0)(1,1,2,0,0)(1,2,0,0,1)(2,0,0,2,1)(2,0,2,1,0)(2,1,0,0,2)(2,2,1,0,0)(3,0,0,2,2)(3,0,2,2,0)(3,2,0,0,2)(3,2,2,0,0)(4,0,1,3,1)(4,1,0,1,3)(4,1,3,1,0)(4,3,1,0,1)(5,0,1,3,2)(5,1,3,2,0)(5,2,0,1,3)(5,3,2,0,1)(6,0,1,4,1)(6,1,0,1,4)(6,1,4,1,0)(6,4,1,0,1)(7,0,1,5,2)(7,1,5,2,0)(7,2,0,1,5)(7,5,2,0,1)(8,0,2,4,1)(8,1,0,2,4)(8,2,4,1,0)(8,4,1,0,2)(9,0,2,4,2)(9,2,0,2,4)(9,2,4,2,0)(9,4,2,0,2)(10,0,2,5,1)(10,1,0,2,5)(10,2,5,1,0)(10,5,1,0,2)(11,0,2,5,2)(11,2,0,2,5)(11,2,5,2,0)(11,5,2,0,2)(12,3,3,5,5)(12,3,5,5,3)(12,5,3,3,5)(12,5,5,3,3)(13,3,4,3,5)(13,3,5,3,4)(13,4,3,5,3)(13,5,3,4,3)(14,3,4,4,4)(14,4,3,4,4)(14,4,4,3,4)(14,4,4,4,3)(15,3,5,5,4)(15,4,3,5,5)(15,5,4,3,5)(15,5,5,4,3) </supports>
</extension>
<extension>
<list> id3[0] u3[0] l1[3] d3[0] l0[3] </list>
<supports> (0,0,0,1,1)(0,0,1,1,0)(0,1,0,0,1)(0,1,1,0,0)(1,0,0,1,2)(1,0,1,2,0)(1,1,2,0,0)(1,2,0,0,1)(2,0,0,2,1)(2,0,2,1,0)(2,1,0,0,2)(2,2,1,0,0)(3,0,0,2,2)(3,0,2,2,0)(3,2,0,0,2)(3,2,2,0,0)(4,0,1,3,1)(4,1,0,1,3)(4,1,3,1,0)(4,3,1,0,1)(5,0,1,3,2)(5,1,3,2,0)(5,2,0,1,3)(5,3,2,0,1)(6,0,1,4,1)(6,1,0,1,4)(6,1,4,1,0)(6,4,1,0,1)(7,0,1,5,2)(7,1,5,2,0)(7,2,0,1,5)(7,5,2,0,1)(8,0,2,4,1)(8,1,0,2,4)(8,2,4,1,0)(8,4,1,0,2)(9,0,2,4,2)(9,2,0,2,4)(9,2,4,2,0)(9,4,2,0,2)(10,0,2,5,1)(10,1,0,2,5)(10,2,5,1,0)(10,5,1,0,2)(11,0,2,5,2)(11,2,0,2,5)(11,2,5,2,0)(11,5,2,0,2)(12,3,3,5,5)(12,3,5,5,3)(12,5,3,3,5)(12,5,5,3,3)(13,3,4,3,5)(13,3,5,3,4)(13,4,3,5,3)(13,5,3,4,3)(14,3,4,4,4)(14,4,3,4,4)(14,4,4,3,4)(14,4,4,4,3)(15,3,5,5,4)(15,4,3,5,5)(15,5,4,3,5)(15,5,5,4,3) </supports>
</extension>
<extension>
<list> id3[1] u3[1] l2[3] d3[1] l1[3] </list>
<supports> (0,0,0,1,1)(0,0,1,1,0)(0,1,0,0,1)(0,1,1,0,0)(1,0,0,1,2)(1,0,1,2,0)(1,1,2,0,0)(1,2,0,0,1)(2,0,0,2,1)(2,0,2,1,0)(2,1,0,0,2)(2,2,1,0,0)(3,0,0,2,2)(3,0,2,2,0)(3,2,0,0,2)(3,2,2,0,0)(4,0,1,3,1)(4,1,0,1,3)(4,1,3,1,0)(4,3,1,0,1)(5,0,1,3,2)(5,1,3,2,0)(5,2,0,1,3)(5,3,2,0,1)(6,0,1,4,1)(6,1,0,1,4)(6,1,4,1,0)(6,4,1,0,1)(7,0,1,5,2)(7,1,5,2,0)(7,2,0,1,5)(7,5,2,0,1)(8,0,2,4,1)(8,1,0,2,4)(8,2,4,1,0)(8,4,1,0,2)(9,0,2,4,2)(9,2,0,2,4)(9,2,4,2,0)(9,4,2,0,2)(10,0,2,5,1)(10,1,0,2,5)(10,2,5,1,0)(10,5,1,0,2)(11,0,2,5,2)(11,2,0,2,5)(11,2,5,2,0)(11,5,2,0,2)(12,3,3,5,5)(12,3,5,5,3)(12,5,3,3,5)(12,5,5,3,3)(13,3,4,3,5)(13,3,5,3,4)(13,4,3,5,3)(13,5,3,4,3)(14,3,4,4,4)(14,4,3,4,4)(14,4,4,3,4)(14,4,4,4,3)(15,3,5,5,4)(15,4,3,5,5)(15,5,4,3,5)(15,5,5,4,3) </supports>
</extension>
<extension>
<list> id3[2] u3[2] l3[3] d3[2] l2[3] </list>
<supports> (0,0,0,1,1)(0,0,1,1,0)(0,1,0,0,1)(0,1,1,0,0)(1,0,0,1,2)(1,0,1,2,0)(1,1,2,0,0)(1,2,0,0,1)(2,0,0,2,1)(2,0,2,1,0)(2,1,0,0,2)(2,2,1,0,0)(3,0,0,2,2)(3,0,2,2,0)(3,2,0,0,2)(3,2,2,0,0)(4,0,1,3,1)(4,1,0,1,3)(4,1,3,1,0)(4,3,1,0,1)(5,0,1,3,2)(5,1,3,2,0)(5,2,0,1,3)(5,3,2,0,1)(6,0,1,4,1)(6,1,0,1,4)(6,1,4,1,0)(6,4,1,0,1)(7,0,1,5,2)(7,1,5,2,0)(7,2,0,1,5)(7,5,2,0,1)(8,0,2,4,1)(8,1,0,2,4)(8,2,4,1,0)(8,4,1,0,2)(9,0,2,4,2)(9,2,0,2,4)(9,2,4,2,0)(9,4,2,0,2)(10,0,2,5,1)(10,1,0,2,5)(10,2,5,1,0)(10,5,1,0,2)(11,0,2,5,2)(11,2,0,2,5)(11,2,5,2,0)(11,5,2,0,2)(12,3,3,5,5)(12,3,5,5,3)(12,5,3,3,5)(12,5,5,3,3)(13,3,4,3,5)(13,3,5,3,4)(13,4,3,5,3)(13,5,3,4,3)(14,3,4,4,4)(14,4,3,4,4)(14,4,4,3,4)(14,4,4,4,3)(15,3,5,5,4)(15,4,3,5,5)(15,5,4,3,5)(15,5,5,4,3) </supports>
</extension>
<extension>
<list> id3[3] u3[3] r3[3] d3[3] l3[3] </list>
<supports> (0,0,0,1,1)(0,0,1,1,0)(0,1,0,0,1)(0,1,1,0,0)(1,0,0,1,2)(1,0,1,2,0)(1,1,2,0,0)(1,2,0,0,1)(2,0,0,2,1)(2,0,2,1,0)(2,1,0,0,2)(2,2,1,0,0)(3,0,0,2,2)(3,0,2,2,0)(3,2,0,0,2)(3,2,2,0,0)(4,0,1,3,1)(4,1,0,1,3)(4,1,3,1,0)(4,3,1,0,1)(5,0,1,3,2)(5,1,3,2,0)(5,2,0,1,3)(5,3,2,0,1)(6,0,1,4,1)(6,1,0,1,4)(6,1,4,1,0)(6,4,1,0,1)(7,0,1,5,2)(7,1,5,2,0)(7,2,0,1,5)(7,5,2,0,1)(8,0,2,4,1)(8,1,0,2,4)(8,2,4,1,0)(8,4,1,0,2)(9,0,2,4,2)(9,2,0,2,4)(9,2,4,2,0)(9,4,2,0,2)(10,0,2,5,1)(10,1,0,2,5)(10,2,5,1,0)(10,5,1,0,2)(11,0,2,5,2)(11,2,0,2,5)(11,2,5,2,0)(11,5,2,0,2)(12,3,3,5,5)(12,3,5,5,3)(12,5,3,3,5)(12,5,5,3,3)(13,3,4,3,5)(13,3,5,3,4)(13,4,3,5,3)(13,5,3,4,3)(14,3,4,4,4)(14,4,3,4,4)(14,4,4,3,4)(14,4,4,4,3)(15,3,5,5,4)(15,4,3,5,5)(15,5,4,3,5)(15,5,5,4,3) </supports>
</extension>
<intension> eq(l0[0],0) </intension>
<intension> eq(r3[0],0) </intension>
<intension> eq(l0[1],0) </intension>
<intension> eq(r3[1],0) </intension>
<intension> eq(l0[2],0) </intension>
<intension> eq(r3[2],0) </intension>
<intension> eq(l0[3],0) </intension>
<intension> eq(r3[3],0) </intension>
<intension> eq(u0[0],0) </intension>
<intension> eq(d3[0],0) </intension>
<intension> eq(u0[1],0) </intension>
<intension> eq(d3[1],0) </intension>
<intension> eq(u0[2],0) </intension>
<intension> eq(d3[2],0) </intension>
<intension> eq(u0[3],0) </intension>
<intension> eq(d3[3],0) </intension>
</constraints>
</instance>
